60	12	4	46	
12	12	15	14

0	0	0	0	0	0	4	1	2	3	4
1	3	2	10	1	6	1	5
2	8	7	1	9	9	1	7
3	1	5	10	7	6	1	8
4	4	3	9	8	5	2	8	9
5	9	2	1	7	6	2	6	8
6	6	8	3	8	7	1	10
7	1	8	6	9	4	1	11
8	6	3	5	7	6	1	11
9	5	6	9	7	2	1	11
10	8	7	7	2	9	1	11
11	0	0	0	0	0	0
